0000000000000000
0111111111111110
0111111111111110
0111111111111110
0111111111111110
0000000001111000
0000000001111000
0000000001111000
0000000001111000
0000000001111000
0000000001111000
0000000001111000
0000000001111000
0000000001111000
0000000001111000
0000000001111000
